dates = {'2022-01-03','2022-01-04','2022-01-05','2022-01-06','2022-01-07','2022-01-08','2022-01-09','2022-01-10','2022-01-11','2022-01-12','2022-01-13','2022-01-14','2022-01-15','2022-01-16','2022-01-17','2022-01-18','2022-01-19','2022-01-20','2022-01-21','2022-01-22','2022-01-23','2022-01-24','2022-01-25','2022-01-26','2022-01-27','2022-01-28','2022-01-29','2022-01-30','2022-01-31','2022-02-01'};

daysOfWeek = [Monday,Tuesday,Wednesday,Thursday,Friday,Saturday,Sunday,Monday,Tuesday,Wednesday,Thursday,Friday,Saturday,Sunday,Monday,Tuesday,Wednesday,Thursday,Friday,Saturday,Sunday,Monday,Tuesday,Wednesday,Thursday,Friday,Saturday,Sunday,Monday,Tuesday];

% For this week, how many people will be here.
numPeople = [164,164,164,164,164,165,165,154,154,162,162,162,162,162,162,162,162,162
,163,162,162,162,167,164,167,164,164,164,158,160];

% Physical workers need 50 to 100 % more nutrients per day.
numPhysicalWorkers = [58.5,58.5,58.5,58.5,58.5,58.5,58.5,58.5,54.0,56.5,56.5,56.5,56.5,56.5
,56.5,56.5,56.5,56.5,56.5,56.5,56.5,56.5,57.5,57.5,57.5,57.5,57.5,57.5
,57.5,54.0];

% Males need +25% more nutrients per day.
numMen = [137,137,137,137,137,138,138,138,131,136,136,136,136,136,136,136,136,136
,139,139,136,136,140,140,140,140,137,137,137,132];

% Num people who do not eat categories. contains = {none, meat, milk, gluten, egg, nut, seed, sugars}
numRefusals = [| 0,4,9,0,34,0,22,0 | 0,4,9,0,34,0,22,0 | 0,4,9,0,34,0,22,0 | 0,4,9,0,34,0,22,0 | 0,4,9,0,34,0,22,0 | 0,4,9,0,7,0,0,0 | 0,4,9,0,7,0,0,0 | 0,2,16,1,21,13,0,28 | 0,2,16,1,21,13,0,28 | 0,10,0,0,0,2,0,0 | 0,10,0,0,0,2,0,0 | 0,10,0,0,0,2,0,0 | 0,10,0,0,0,2,0,0 | 0,10,0,0,0,2,0,0 | 0,10,0,0,0,2,0,0 | 0,10,0,0,0,2,0,0 | 0,10,0,0,0,2,0,0 | 0,10,0,0,0,2,0,0 | 0,6,10,0,0,0,0,0 | 0,12,6,4,8,14,18,16 | 0,12,6,4,8,14,18,16 | 0,12,6,4,8,14,18,16 | 0,0,12,26,6,17,2,11 | 0,0,0,0,14,4,17,21 | 0,0,19,0,0,0,19,0 | 0,0,0,0,0,0,6,5 | 0,0,0,0,0,0,6,5 | 0,0,0,0,0,0,6,5 | 0,9,0,10,0,30,0,0 | 0,0,0,0,0,7,0,0 |];

